1487071
33,57,18,10,44,14,52,22,31,28,50,53,37,62,39,51,35,68,8,36,59,15,58,9,17,27,45,2,48,20,65,13,54,1,12,32,40,5,19,49,23,60,29,56,42,61,24,47,4,16,63,21,3,30,25,41,6,11,66,26,55,46,34,64,67,38,7,43